 vasp.5.3.2 13Sep12 (build Nov  1 2013 16:31:47) complex

 executed on             LinuxIFC date 2014.07.08  09:47:25

 INCAR:
 POTCAR:   PAW_GGA Pt 05Jan2001
 POTCAR:   PAW_GGA Zn 03Mar1998
 POTCAR:   PAW_GGA C 05Jan2001
 POTCAR:   PAW_GGA O 05Jan2001
 POTCAR:   PAW_GGA H 07Jul1998

 POTCAR:   PAW_GGA Pt 05Jan2001
   VRHFIN =Pt: s1d9

   TITEL  = PAW_GGA Pt 05Jan2001
   POMASS =  195.080; ZVAL   =   10.000    mass and valenz
   ENMAX  =  230.277; ENMIN  =  172.708 eV
   QCUT   =   -4.114; QGAM   =    8.228    optimization parameters

   Description
     l     E      TYP  RCUT    TYP  RCUT
     2   .000     23  2.500
     2   .000     23  2.500
     0   .000     23  2.500
     0   .000     23  2.500
     1  -.200     23  2.500
     1  1.500     23  2.500
     3   .000      7   .000

 POTCAR:   PAW_GGA Zn 03Mar1998
   VRHFIN =Zn: d10 p2

   TITEL  = PAW_GGA Zn 03Mar1998
   POMASS =   65.390; ZVAL   =   12.000    mass and valenz
   ENMAX  =  276.749; ENMIN  =  207.562 eV
   QCUT   =   -4.510; QGAM   =    9.020    optimization parameters

[...]

 POTCAR:   PAW_GGA C 05Jan2001
   VRHFIN =C: s2p2

[...]

 POTCAR:   PAW_GGA O 05Jan2001
   VRHFIN =O: s2p4

   TITEL  = PAW_GGA O 05Jan2001
   POMASS =   16.000; ZVAL   =    6.000    mass and valenz
   ENMAX  =  400.000; ENMIN  =  300.000 eV
   QCUT   =   -5.520; QGAM   =   11.040    optimization parameters

[...]

 POTCAR:   PAW_GGA H 07Jul1998
   VRHFIN =H: ultrasoft test

   TITEL  = PAW_GGA H 07Jul1998
   POMASS =    1.000; ZVAL   =    1.000    mass and valenz
   ENMAX  =  250.000; ENMIN  =  200.000 eV
   QCUT   =   -5.749; QGAM   =   11.498    optimization parameters

   Description
     l     E      TYP  RCUT    TYP  RCUT
     0   .000     23  1.100
     0   .500     23  1.100
     1  -.300     23  1.100

 Optimization of the real space projectors (new method)

 maximal supplied QI-value         = 15.12
 optimisation between [QCUT,QGAM] = [  8.77, 17.69] = [ 21.53, 87.61] Ry
 Optimized for a Real-space Cutoff    1.42 Angstroem

   l    n(q)    QCUT    max X(q) W(low)/X(q) W(high)/X(q)  e(spline)
   2      6     8.768     3.641    0.67E-03    0.89E-04    0.26E-07
   2      6     8.768    46.630    0.97E-02    0.58E-03    0.36E-06
   0      7     8.768    13.886    0.12E-04    0.48E-04    0.13E-07
   0      7     8.768    57.975    0.69E-03    0.79E-03    0.13E-06
   1      7     8.768     7.456    0.21E-03    0.15E-03    0.26E-07
   1      7     8.768    10.270    0.88E-03    0.11E-02    0.67E-07
 Optimization of the real space projectors (new method)

[...]

   l    n(q)    QCUT    max X(q) W(low)/X(q) W(high)/X(q)  e(spline)
   0      6     8.664     4.138    0.11E-03    0.63E-03    0.41E-07
   0      6     8.664     8.500    0.16E-02    0.13E-02    0.16E-06
   1      5     8.664     2.482    0.14E-03    0.25E-03    0.17E-07
   1      5     8.664     3.751    0.12E-02    0.11E-02    0.12E-06
 Optimization of the real space projectors (new method)

 maximal supplied QI-value         = 34.20
 optimisation between [QCUT,QGAM] = [  8.55, 17.44] = [ 20.48, 85.21] Ry
 Optimized for a Real-space Cutoff    1.12 Angstroem

   l    n(q)    QCUT    max X(q) W(low)/X(q) W(high)/X(q)  e(spline)
   0      6     8.551     4.435    0.16E-03    0.14E-03    0.34E-07
   0      6     8.551    15.959    0.45E-03    0.32E-02    0.17E-06
   1      5     8.551     4.433    0.66E-02    0.67E-02    0.12E-06
 PAW_GGA Pt 05Jan2001                   :
 PAW_GGA Zn 03Mar1998                   :
 PAW_GGA C 05Jan2001                    :
 PAW_GGA O 05Jan2001                    :
 PAW_GGA H 07Jul1998                    :

 POSCAR: Title
  positions in direct lattice
 exchange correlation table for  LEXCH =        7
   RHO(1)=    0.500       N(1)  =     2000
   RHO(2)=  100.500       N(2)  =     4000

 VTST: version 3.0c, (03/27/13)

 CHAIN: initializing optimizer

 OPT: Using VASP Dynamics algorithm
 CHAIN: Read ICHAIN            0

 POSCAR: Title
  positions in direct lattice

 ion  position               nearest neighbor table
   1  0.000  0.000  0.000-   9 2.82  33 2.82  13 2.82  25 2.82   5 2.82  17 2.82  36 2.82  28 2.82
                             4 2.82
   2  0.995  0.996  0.316-  18 2.74  34 2.75   6 2.80  26 2.82  35 2.83  14 2.83  11 2.83  10 2.84
                             3 2.86
   3  0.222  0.111  0.210-  18 2.78   6 2.80  28 2.82   8 2.82   4 2.82  27 2.82  11 2.82  35 2.82
                            15 2.82  19 2.82   7 2.82   2 2.86
   4  0.111  0.222  0.105-  11 2.82   3 2.82  15 2.82  36 2.82  28 2.82  12 2.82   8 2.82  20 2.82
                            16 2.82  13 2.82   1 2.82  17 2.82
   5  0.333  0.000  0.000-  25 2.82  29 2.82  17 2.82   1 2.82  21 2.82   9 2.82  32 2.82  28 2.82
                             8 2.82
   6  0.326  0.996  0.315-  26 2.79  27 2.80   2 2.80  18 2.80   3 2.80  10 2.81  22 2.82   7 2.85
                            30 2.86
   7  0.556  0.111  0.210-  32 2.82  12 2.82   8 2.82  31 2.82  23 2.82  11 2.82  19 2.82  27 2.82
                             3 2.82   6 2.85  10 2.89  22 2.92
   8  0.444  0.222  0.105-   3 2.82  19 2.82   7 2.82  32 2.82  28 2.82   4 2.82  12 2.82  24 2.82
                            20 2.82   5 2.82  17 2.82  21 2.82
   9  0.667  0.000  0.000-   1 2.82  33 2.82  21 2.82  13 2.82  29 2.82   5 2.82  36 2.82  12 2.82
                            32 2.82
  10  0.658  0.995  0.320-  40 1.82   6 2.81  22 2.81  34 2.81  14 2.82  30 2.84   2 2.84  31 2.89
                             7 2.89  11 2.95
  11  0.889  0.111  0.210-   4 2.82  36 2.82  12 2.82  35 2.82   3 2.82  15 2.82  31 2.82   7 2.82
                            23 2.82  14 2.82   2 2.83  10 2.95
  12  0.778  0.222  0.105-   7 2.82  11 2.82  23 2.82  36 2.82   4 2.82  32 2.82  16 2.82   8 2.82
                            24 2.82   9 2.82  21 2.82  13 2.82
  13  0.000  0.333  0.000-  17 2.82   1 2.82  21 2.82   9 2.82  29 2.82  25 2.82   4 2.82  12 2.82
                            16 2.82
  14  0.991  0.329  0.316-  18 2.79  26 2.80  22 2.80  30 2.80  23 2.81  11 2.82  10 2.82   2 2.83
                            15 2.87
  15  0.222  0.444  0.210-  18 2.80   4 2.82  20 2.82  16 2.82  23 2.82  11 2.82   3 2.82  27 2.82
                            31 2.82  19 2.82  14 2.87  30 2.96
  16  0.111  0.556  0.105-  23 2.82  27 2.82  15 2.82  24 2.82  28 2.82  20 2.82  32 2.82  12 2.82
                             4 2.82  25 2.82  29 2.82  13 2.82
  17  0.333  0.333  0.000-  13 2.82   5 2.82   1 2.82  33 2.82  29 2.82  21 2.82   8 2.82   4 2.82
                            20 2.82
  18  0.318  0.323  0.315-  37 2.53   2 2.74   3 2.78  14 2.79   6 2.80  15 2.80  30 2.80  22 2.87
                            19 2.89  34 2.96
  19  0.556  0.444  0.210-  34 2.77  24 2.82   8 2.82  23 2.82   7 2.82  20 2.82   3 2.82  35 2.82
                            31 2.82  15 2.82  18 2.89  22 2.92
  20  0.444  0.556  0.105-  31 2.82  15 2.82  32 2.82  16 2.82  19 2.82  36 2.82   4 2.82  24 2.82
                             8 2.82  29 2.82  33 2.82  17 2.82
  21  0.667  0.333  0.000-   9 2.82  13 2.82  25 2.82   5 2.82  33 2.82  17 2.82  12 2.82  24 2.82
                             8 2.82
  22  0.659  0.329  0.321-  37 2.62  14 2.80  10 2.81   6 2.82  34 2.84  26 2.84  18 2.87   7 2.92
                            19 2.92  23 2.96
  23  0.889  0.444  0.210-  14 2.81  16 2.82  12 2.82  24 2.82  15 2.82   7 2.82  19 2.82  11 2.82
                            27 2.82  35 2.82  26 2.82  22 2.96
  24  0.778  0.556  0.105-  35 2.82  19 2.82  23 2.82  16 2.82  28 2.82  36 2.82  20 2.82   8 2.82
                            12 2.82  33 2.82  25 2.82  21 2.82
  25  0.000  0.667  0.000-  29 2.82   5 2.82   1 2.82  33 2.82  21 2.82  13 2.82  16 2.82  24 2.82
                            28 2.82
  26  0.997  0.663  0.316-  34 2.78   6 2.79  14 2.80  30 2.80  23 2.82   2 2.82  35 2.84  22 2.84
                            27 2.85
  27  0.222  0.778  0.210-   6 2.80  16 2.82  28 2.82  32 2.82   3 2.82  35 2.82  23 2.82   7 2.82
                            15 2.82  31 2.82  26 2.85  30 3.00
  28  0.111  0.889  0.105-   3 2.82  35 2.82  27 2.82   4 2.82  36 2.82   8 2.82  24 2.82  16 2.82
                            32 2.82   1 2.82   5 2.82  25 2.82
  29  0.333  0.667  0.000-  25 2.82   5 2.82  13 2.82   9 2.82  17 2.82  33 2.82  20 2.82  16 2.82
                            32 2.82
  30  0.325  0.657  0.325-  38 2.06  18 2.80  26 2.80  14 2.80  10 2.84   6 2.86  34 2.89  15 2.96
                            27 3.00  31 3.04
  31  0.556  0.778  0.210-  34 2.76  36 2.82  20 2.82  32 2.82   7 2.82  11 2.82  35 2.82  19 2.82
                            15 2.82  27 2.82  10 2.89  30 3.04
  32  0.444  0.889  0.105-   7 2.82  27 2.82  31 2.82   8 2.82  20 2.82  28 2.82  16 2.82  12 2.82
                            36 2.82   5 2.82  29 2.82   9 2.82
  33  0.667  0.667  0.000-   1 2.82   9 2.82  25 2.82  17 2.82  21 2.82  29 2.82  24 2.82  36 2.82
                            20 2.82
  34  0.671  0.669  0.312-  37 2.51  35 2.74   2 2.75  31 2.76  19 2.77  26 2.78  10 2.81  22 2.84
                            30 2.89  18 2.96
  35  0.889  0.778  0.210-  34 2.74  28 2.82  24 2.82  36 2.82  11 2.82  27 2.82   3 2.82  31 2.82
                            19 2.82  23 2.82   2 2.83  26 2.84
  36  0.778  0.889  0.105-  11 2.82  35 2.82  31 2.82   4 2.82  12 2.82  28 2.82  24 2.82  20 2.82
                            32 2.82   1 2.82   9 2.82  33 2.82
  37  0.537  0.467  0.404-  39 2.00  34 2.51  18 2.53  22 2.62
  38  0.406  0.716  0.415-  41 1.11  39 1.30  40 1.39  30 2.06
  39  0.448  0.615  0.448-  38 1.30  37 2.00
  40  0.555  0.869  0.390-  38 1.39  10 1.82
  41  0.334  0.776  0.440-  38 1.11

IMPORTANT INFORMATION: All symmetrisations will be switched off!
NOSYMM: (Re-)initialisation of all symmetry stuff for point group C_1.

 KPOINTS: Automatic mesh

Automatic generation of k-mesh.
Space group operators:
 irot       det(A)        alpha          n_x          n_y          n_z        tau_x        tau_y        tau_z
    1     1.000000     0.000000     1.000000     0.000000     0.000000     0.000000     0.000000     0.000000

 Subroutine IBZKPT returns following result:

 Found      5 irreducible k-points:

 Following reciprocal coordinates:
            Coordinates               Weight
  0.000000  0.000000  0.000000      1.000000
  0.333333  0.000000  0.000000      2.000000
  0.000000  0.333333  0.000000      2.000000
  0.333333  0.333333  0.000000      2.000000
 -0.333333  0.333333  0.000000      2.000000

 Following cartesian coordinates:
            Coordinates               Weight
  0.000000  0.000000  0.000000      1.000000
  0.039448  0.022775  0.000000      2.000000
  0.000000  0.045551  0.000000      2.000000
  0.039448  0.068326  0.000000      2.000000
 -0.039448  0.022775  0.000000      2.000000

 Subroutine IBZKPT_HF returns following result:

 Found      9 k-points in 1st BZ
 the following      9 k-points will be used (e.g. in the exchange kernel)
 Following reciprocal coordinates:   # in IRBZ
  0.000000  0.000000  0.000000       1 t-inv F
  0.333333  0.000000  0.000000       2 t-inv F
  0.000000  0.333333  0.000000       3 t-inv F
  0.333333  0.333333  0.000000       4 t-inv F
[...]
   0.107E+01 -.256E+01 0.890E+03   -.101E+01 0.259E+01 -.890E+03   -.514E-01 -.109E-01 -.716E-01   0.236E-01 0.917E-02 0.874E-02
   -.220E+03 0.173E+03 -.301E+04   0.220E+03 -.172E+03 0.300E+04   0.322E+00 -.364E+00 0.962E+01   -.122E-02 -.762E-02 -.748E-02
   0.129E+03 -.121E+03 -.930E+03   -.135E+03 0.124E+03 0.927E+03   0.604E+01 -.296E+01 0.292E+01   -.431E-02 -.412E-02 0.601E-02
   0.337E+02 -.781E+01 -.156E+04   -.168E+02 -.113E+02 0.159E+04   -.170E+02 0.191E+02 -.334E+02   0.656E-02 -.894E-02 -.432E-02
   -.888E+01 -.378E+02 -.256E+03   0.953E+01 0.387E+02 0.256E+03   -.629E+00 -.967E+00 -.271E+00   -.121E-02 -.568E-03 0.201E-02
   0.555E+02 -.303E+02 -.257E+03   -.601E+02 0.326E+02 0.260E+03   0.449E+01 -.226E+01 -.263E+01   0.656E-03 -.805E-03 -.136E-02
   0.660E+01 -.127E+02 0.273E+02   -.213E-13 -.924E-13 0.193E-11   -.687E+01 0.124E+02 -.293E+02   0.371E-02 -.215E-01 0.548E+00

 POSITION                                       TOTAL-FORCE (eV/Angst)
      0.00000      0.00000      0.00000        -0.006026      0.013286     -0.091370
      4.19562      7.29175      6.92807        -0.051511     -0.043051      0.021042
      1.40830      0.81308      4.59951        -0.025263     -0.096559     -0.474128
      0.00000      1.62617      2.29986         0.083155     -0.052457      0.018407
      2.81661      0.00000      0.00000         0.018950      0.017051     -0.027949
     -1.45577      7.28638      6.89769        -0.030754     -0.021127      0.008355
      4.22499      0.81308      4.59951         0.143703      0.095084      0.212029
      2.81661      1.62617      2.29986        -0.039403      0.035226      0.124382
      5.63329      0.00000      0.00000        -0.005615      0.010872     -0.077339
      1.35545      7.28249      7.01269        -0.030046     -0.002445      0.030840
      7.04160      0.81308      4.59951        -0.193106     -0.080202      0.070485
      5.63329      1.62617      2.29986        -0.020712      0.010233      0.207361
     -1.40830      2.43925      0.00000         0.011906      0.002871     -0.030174
      6.98184      2.40782      6.92100        -0.008454     -0.011871      0.010449
      0.00000      3.25234      4.59951        -0.082838      0.205664      0.155636
     -1.40834      4.06549      2.29986         0.045688      0.071158      0.128501
      1.40830      2.43925      0.00000         0.003051      0.022249     -0.112027
      1.31840      2.36439      6.90661         0.024513      0.021216      0.031479
      2.81669      3.25234      4.59951         0.044264     -0.193723     -0.133244
      1.40826      4.06549      2.29986        -0.027153      0.003344      0.102732
      4.22499      2.43925      0.00000         0.009251      0.004303     -0.046159
      4.18214      2.40725      7.04061        -0.003854      0.014913      0.040371
      5.63329      3.25234      4.59951        -0.157882     -0.102258      0.028546
      4.22495      4.06549      2.29986         0.053776      0.008653      0.135447
     -2.81665      4.87858      0.00000         0.011963      0.002183     -0.043954
      5.62006      4.85336      6.92514        -0.029666     -0.054056     -0.008294
     -1.40834      5.69166      4.59951         0.140346     -0.131447      0.128509
     -2.81665      6.50474      2.29986        -0.065459      0.036932     -0.063807
     -0.00004      4.87858      0.00000         0.016105      0.002969     -0.087215
     -0.03395      4.81007      7.12179         0.008112     -0.007119     -0.039118
      1.40834      5.69166      4.59951        -0.253942      0.020218     -0.076372
     -0.00004      6.50474      2.29986         0.017400     -0.049863      0.147656
      2.81665      4.87858      0.00000         0.009655     -0.006951     -0.039004
      2.84086      4.89875      6.82716        -0.018947     -0.006654      0.049998
      4.22495      5.69166      4.59951         0.243787      0.123165     -0.514550
      2.81665      6.50474      2.29986         0.037216      0.040622      0.062471
      2.56278      3.41536      8.83837         0.020243      0.010467      0.035357
      0.40893      5.23592      9.08964         0.276157     -0.038008     -0.207229
      1.19124      4.49798      9.81458        -0.035330      0.015336      0.049992
      1.02194      6.35715      8.54350         0.034099      0.000592      0.047633
     -0.45526      5.67597      9.61246        -0.167378      0.109184      0.224258
    total drift:                               -0.260305     -0.304484     -1.393937

  FREE ENERGIE OF THE ION-ELECTRON SYSTEM (eV)
  free  energy   TOTEN  =      -231.85125223 eV

  energy  without entropy=     -231.73308046  energy(sigma->0) =     -231.81186164

 d Force =-0.1191579E-02[-0.897E-02, 0.659E-02]  d Energy = 0.1673707E-03-0.136E-02
 d Force =-0.1036624E+02[-0.104E+02,-0.103E+02]  d Ewald  =-0.1036677E+02 0.527E-03

 stress matrix after NEB project (eV)
    -47.19175      0.50767      0.52036
      0.50767    -46.91014      0.52237
      0.52036      0.52237     -9.26869
  FORCES: max atom, RMS     0.347349    0.072967
  FORCE total and by dimension    0.467219    0.276157
  Stress total and by dimension   67.194742   47.191749
 Finite differences progress:
  Degree of freedom:  12/ 12
  Displacement:        2/  2
  Total:              24/ 24

 SECOND DERIVATIVES (NOT SYMMETRIZED)
              38X         38Y         38Z         39X         39Y         39Z         40X         40Y         40Z         41X         41Y         41Z
 38X   -38.780039   22.860420    2.174065   17.356386  -13.082815   11.048922    2.053035   -0.801912    1.371392   15.440175   -7.016715  -10.453221
 38Y    22.488765  -16.194401    3.665065   -9.745283   10.309417   -9.723507   -2.257243   -4.625630    7.394247   -7.299050    4.869494    4.608113
 38Z     2.069020    3.008732  -30.306861    5.811454   -6.802611   13.689760   -0.709808   -0.519018   -0.626719   -9.153406    3.988392    9.492170
 39X    17.435361   -9.722437    5.791365  -20.912070   14.962829   -8.888244   -1.148935   -1.530726    1.722862    2.098678   -2.665967    2.147019
 39Y   -13.001735   10.273261   -6.696921   14.895783  -16.312193    9.809800    0.621703    4.113260   -4.147812   -1.697734    1.580611   -1.422899
 39Z    11.067261   -9.715084   13.756406   -9.223016   10.227929  -20.438556    0.015934   -1.854845    1.663824    0.091462    0.045431   -0.763808
 40X     2.068808   -2.239787   -0.711566   -1.225178    0.646005    0.018703   -2.489074    0.631347   -0.764242    0.825282    1.210221   -0.406018
 40Y    -0.816467   -4.659081   -0.530090   -1.472263    4.116678   -1.828976    0.636539   -0.536502   -1.044358    0.607580    0.928301    0.144555
 40Z     1.424337    7.419837   -0.576040    1.653151   -4.089054    1.544412   -0.802372   -1.076576   -2.509511   -1.055941   -1.445231   -0.019307
 41X    15.406761   -7.272798   -9.155692    2.075390   -1.742727    0.074653    0.797468    0.600171   -1.105271  -17.906225    8.408553    9.048076
 41Y    -6.954244    4.851997    4.016076   -2.705150    1.611057    0.005127    1.219261    0.904680   -1.421995    8.394990   -6.758066   -3.926861
 41Z   -10.381160    4.621915    9.541433    2.110606   -1.368857   -0.864280   -0.417199    0.122441    0.035156    9.099073   -3.957692   -9.723448

 Eigenvectors and eigenvalues of the dynamical matrix

   1 f  =   85.542934 THz   537.482107 2PiTHz 2853.405054 cm-1   353.777265 meV
             X         Y         Z           dx          dy          dz
      0.000000  0.000000  0.000000            0           0           0
      4.195624  7.291747  6.928065            0           0           0
      1.408303  0.813084  4.599510            0           0           0
      0.000000  1.626168  2.299864            0           0           0
      2.816605  0.000000  0.000000            0           0           0
     -1.455771  7.286382  6.897687            0           0           0
      4.224992  0.813084  4.599510            0           0           0
      2.816605  1.626168  2.299864            0           0           0
      5.633295  0.000000  0.000000            0           0           0
      1.355446  7.282494  7.012690            0           0           0
      7.041597  0.813084  4.599510            0           0           0
      5.633295  1.626168  2.299864            0           0           0
     -1.408302  2.439252  0.000000            0           0           0
      6.981836  2.407824  6.921005            0           0           0
      0.000000  3.252336  4.599510            0           0           0
     -1.408345  4.065493  2.299864            0           0           0
      1.408303  2.439252  0.000000            0           0           0
      1.318400  2.364387  6.906614            0           0           0
      2.816690  3.252336  4.599510            0           0           0
      1.408260  4.065493  2.299864            0           0           0
      4.224992  2.439252  0.000000            0           0           0
      4.182145  2.407255  7.040610            0           0           0
      5.633295  3.252336  4.599510            0           0           0
      4.224950  4.065493  2.299864            0           0           0
     -2.816647  4.878576  0.000000            0           0           0
      5.620058  4.853358  6.925136            0           0           0
     -1.408345  5.691660  4.599510            0           0           0
     -2.816647  6.504744  2.299864            0           0           0
     -0.000042  4.878576  0.000000            0           0           0
     -0.033949  4.810071  7.121792            0           0           0
      1.408345  5.691660  4.599510            0           0           0
     -0.000042  6.504744  2.299864            0           0           0
      2.816647  4.878576  0.000000            0           0           0
      2.840856  4.898753  6.827159            0           0           0
      4.224950  5.691660  4.599510            0           0           0
      2.816647  6.504744  2.299864            0           0           0
      2.562779  3.415357  8.838368            0           0           0
      0.408932  5.235918  9.089639    -0.214222    0.107780    0.135413
      1.191236  4.497982  9.814581    -0.004052    0.003549   -0.000045
      1.021944  6.357150  8.543503    -0.003977    0.002685    0.005421
     -0.455259  5.675969  9.632464     0.747968   -0.382200   -0.467484

[...]

  11 f  =    4.316334 THz    27.120324 2PiTHz  143.977385 cm-1    17.850927 meV
             X         Y         Z           dx          dy          dz
      0.000000  0.000000  0.000000            0           0           0
      4.195624  7.291747  6.928065            0           0           0
      1.408303  0.813084  4.599510            0           0           0
      0.000000  1.626168  2.299864            0           0           0
      2.816605  0.000000  0.000000            0           0           0
     -1.455771  7.286382  6.897687            0           0           0
      4.224992  0.813084  4.599510            0           0           0
      2.816605  1.626168  2.299864            0           0           0
      5.633295  0.000000  0.000000            0           0           0
      1.355446  7.282494  7.012690            0           0           0
      7.041597  0.813084  4.599510            0           0           0
      5.633295  1.626168  2.299864            0           0           0
     -1.408302  2.439252  0.000000            0           0           0
      6.981836  2.407824  6.921005            0           0           0
      0.000000  3.252336  4.599510            0           0           0
     -1.408345  4.065493  2.299864            0           0           0
      1.408303  2.439252  0.000000            0           0           0
      1.318400  2.364387  6.906614            0           0           0
      2.816690  3.252336  4.599510            0           0           0
      1.408260  4.065493  2.299864            0           0           0
      4.224992  2.439252  0.000000            0           0           0
      4.182145  2.407255  7.040610            0           0           0
      5.633295  3.252336  4.599510            0           0           0
      4.224950  4.065493  2.299864            0           0           0
     -2.816647  4.878576  0.000000            0           0           0
      5.620058  4.853358  6.925136            0           0           0
     -1.408345  5.691660  4.599510            0           0           0
     -2.816647  6.504744  2.299864            0           0           0
     -0.000042  4.878576  0.000000            0           0           0
     -0.033949  4.810071  7.121792            0           0           0
      1.408345  5.691660  4.599510            0           0           0
     -0.000042  6.504744  2.299864            0           0           0
      2.816647  4.878576  0.000000            0           0           0
      2.840856  4.898753  6.827159            0           0           0
      4.224950  5.691660  4.599510            0           0           0
      2.816647  6.504744  2.299864            0           0           0
      2.562779  3.415357  8.838368            0           0           0
      0.408932  5.235918  9.089639    -0.327589   -0.421523    0.061790
      1.191236  4.497982  9.814581    -0.475491   -0.657885   -0.006232
      1.021944  6.357150  8.543503    -0.084704   -0.131006   -0.029871
     -0.455259  5.675969  9.632464    -0.094812   -0.131786    0.025625

  12 f/i=   27.463662 THz   172.559279 2PiTHz  916.089135 cm-1   113.580618 meV
             X         Y         Z           dx          dy          dz
      0.000000  0.000000  0.000000            0           0           0
      4.195624  7.291747  6.928065            0           0           0
      1.408303  0.813084  4.599510            0           0           0
      0.000000  1.626168  2.299864            0           0           0
      2.816605  0.000000  0.000000            0           0           0
     -1.455771  7.286382  6.897687            0           0           0
      4.224992  0.813084  4.599510            0           0           0
      2.816605  1.626168  2.299864            0           0           0
      5.633295  0.000000  0.000000            0           0           0
      1.355446  7.282494  7.012690            0           0           0
      7.041597  0.813084  4.599510            0           0           0
      5.633295  1.626168  2.299864            0           0           0
     -1.408302  2.439252  0.000000            0           0           0
      6.981836  2.407824  6.921005            0           0           0
      0.000000  3.252336  4.599510            0           0           0
     -1.408345  4.065493  2.299864            0           0           0
      1.408303  2.439252  0.000000            0           0           0
      1.318400  2.364387  6.906614            0           0           0
      2.816690  3.252336  4.599510            0           0           0
      1.408260  4.065493  2.299864            0           0           0
      4.224992  2.439252  0.000000            0           0           0
      4.182145  2.407255  7.040610            0           0           0
      5.633295  3.252336  4.599510            0           0           0
      4.224950  4.065493  2.299864            0           0           0
     -2.816647  4.878576  0.000000            0           0           0
      5.620058  4.853358  6.925136            0           0           0
     -1.408345  5.691660  4.599510            0           0           0
     -2.816647  6.504744  2.299864            0           0           0
     -0.000042  4.878576  0.000000            0           0           0
     -0.033949  4.810071  7.121792            0           0           0
      1.408345  5.691660  4.599510            0           0           0
     -0.000042  6.504744  2.299864            0           0           0
      2.816647  4.878576  0.000000            0           0           0
      2.840856  4.898753  6.827159            0           0           0
      4.224950  5.691660  4.599510            0           0           0
      2.816647  6.504744  2.299864            0           0           0
      2.562779  3.415357  8.838368            0           0           0
      0.408932  5.235918  9.089639     0.183015    0.455770    0.093011
      1.191236  4.497982  9.814581     0.066339   -0.223025    0.040434
      1.021944  6.357150  8.543503    -0.260137   -0.542838    0.476298
     -0.455259  5.675969  9.632464    -0.173412   -0.273985   -0.002954

 Finite differences POTIM=  2.000000000000000E-002