 vasp.5.4.1 24Jun15 (build Jan 05 2017 13:10:23) complex

 executed on             LinuxIFC date 2017.02.21  08:46:12

 INCAR:
 POTCAR:   PAW_GGA Cu 05Jan2001
 POTCAR:   PAW_GGA C 05Jan2001
 POTCAR:   PAW_GGA O 05Jan2001
 POTCAR:   PAW_GGA H 07Jul1998

 POTCAR:   PAW_GGA Cu 05Jan2001
   VRHFIN =Cu: d10 p1

   TITEL  = PAW_GGA Cu 05Jan2001
   POMASS =   63.546; ZVAL   =   11.000    mass and valenz
   ENMAX  =  273.246; ENMIN  =  204.934 eV
   QCUT   =   -4.481; QGAM   =    8.963    optimization parameters

   Description
     l     E      TYP  RCUT    TYP  RCUT
     2   .000     23  2.300
     2   .000     23  2.300
     0   .000     23  2.300
     0   .000     23  2.300
     1  -.200     23  2.300
     1   .000     23  2.300
     3   .000      7   .000

 POTCAR:   PAW_GGA C 05Jan2001
   VRHFIN =C: s2p2

[...]

 POTCAR:   PAW_GGA O 05Jan2001
   VRHFIN =O: s2p4

   TITEL  = PAW_GGA O 05Jan2001
   POMASS =   16.000; ZVAL   =    6.000    mass and valenz
   ENMAX  =  400.000; ENMIN  =  300.000 eV
   QCUT   =   -5.520; QGAM   =   11.040    optimization parameters

[...]

 POTCAR:   PAW_GGA H 07Jul1998
   VRHFIN =H: ultrasoft test

   TITEL  = PAW_GGA H 07Jul1998
   POMASS =    1.000; ZVAL   =    1.000    mass and valenz
   ENMAX  =  250.000; ENMIN  =  200.000 eV
   QCUT   =   -5.749; QGAM   =   11.498    optimization parameters

   Description
     l     E      TYP  RCUT    TYP  RCUT
     0   .000     23  1.100
     0   .500     23  1.100
     1  -.300     23  1.100

 Optimization of the real space projectors (new method)

 maximal supplied QI-value         = 16.25
 optimisation between [QCUT,QGAM] = [ 10.24, 20.48] = [ 29.35,117.42] Ry
 Optimized for a Real-space Cutoff    1.30 Angstroem

   l    n(q)    QCUT    max X(q) W(low)/X(q) W(high)/X(q)  e(spline)
   2      7    10.239     4.974    0.11E-03    0.23E-03    0.25E-07
   2      7    10.239    13.453    0.18E-02    0.27E-02    0.58E-07
   0      8    10.239    13.269    0.41E-04    0.59E-05    0.12E-07
   0      8    10.239    44.490    0.74E-03    0.41E-03    0.13E-06
   1      7    10.239     5.266    0.38E-04    0.19E-03    0.28E-07
   1      7    10.239     7.318    0.35E-03    0.93E-03    0.19E-06
 Optimization of the real space projectors (new method)

[...]

   l    n(q)    QCUT    max X(q) W(low)/X(q) W(high)/X(q)  e(spline)
   0      7    10.150     4.138    0.13E-03    0.13E-03    0.41E-07
   0      7    10.150     8.500    0.96E-03    0.15E-02    0.11E-06
   1      6    10.150     2.482    0.47E-03    0.21E-03    0.18E-07
   1      6    10.150     3.878    0.20E-02    0.11E-02    0.97E-07
 Optimization of the real space projectors (new method)

 maximal supplied QI-value         = 34.20
 optimisation between [QCUT,QGAM] = [  9.92, 20.18] = [ 27.55,114.04] Ry
 Optimized for a Real-space Cutoff    1.06 Angstroem

   l    n(q)    QCUT    max X(q) W(low)/X(q) W(high)/X(q)  e(spline)
   0      6     9.919     4.435    0.27E-03    0.21E-03    0.24E-07
   0      6     9.919    16.011    0.17E-02    0.71E-03    0.14E-06
   1      6     9.919     4.617    0.35E-03    0.20E-02    0.14E-06
 PAW_GGA Cu 05Jan2001                   :
 PAW_GGA C 05Jan2001                    :
 PAW_GGA O 05Jan2001                    :
 PAW_GGA H 07Jul1998                    :

 POSCAR: Cu   C    O    H
  positions in direct lattice
 exchange correlation table for  LEXCH =        7
   RHO(1)=    0.500       N(1)  =     2000
   RHO(2)=  100.500       N(2)  =     4000

 VTST: version 3.1, (03/28/14)

 CHAIN: initializing optimizer

 OPT: Using VASP Dynamics algorithm
 CHAIN: Read ICHAIN            0

 POSCAR: Cu   C    O    H
  positions in direct lattice

 ion  position               nearest neighbor table
   1  0.000  0.001  0.180-   3 2.53   7 2.53  11 2.54  15 2.54   9 2.55   5 2.56   5 2.56  16 2.56
                            12 2.56   9 2.56   4 2.60   8 2.60
   2  0.000  0.000  0.410-   4 2.48   8 2.48  12 2.52  16 2.52   6 2.55  10 2.55  10 2.56   6 2.57

   3  0.250  0.250  0.065-   5 2.53   1 2.53  13 2.53   9 2.54  11 2.56  11 2.56   7 2.56   7 2.56

   4  0.256  0.248  0.301-   2 2.48   8 2.49  10 2.50  12 2.55  14 2.56  12 2.56   5 2.58  13 2.59
                             1 2.60   6 2.60   9 2.60   8 2.63
   5  0.500  0.000  0.179-   7 2.53   3 2.53  15 2.53  11 2.53  13 2.55   1 2.56   1 2.56  13 2.56
                            16 2.56  12 2.56   8 2.57   4 2.58
   6  0.498  0.980  0.420-  17 2.15  14 2.46   2 2.55  12 2.57   2 2.57  16 2.58   8 2.60   4 2.60
                            14 2.65
   7  0.750  0.250  0.065-   5 2.53   1 2.53  13 2.53   9 2.54  15 2.56  15 2.56   3 2.56   3 2.56

   8  0.742  0.246  0.301-   2 2.48   4 2.49  10 2.50  16 2.55  14 2.55  16 2.57   5 2.57  13 2.59
                             6 2.60   1 2.60   9 2.61   4 2.63
   9  0.000  0.500  0.181-  16 2.54  12 2.54   3 2.54   7 2.54  11 2.54  15 2.54   1 2.55  13 2.56
                            13 2.56   1 2.56   4 2.60   8 2.61
  10  0.998  0.500  0.410-   8 2.50   4 2.50  16 2.51  12 2.52  14 2.54   2 2.55   2 2.56  14 2.58

  11  0.250  0.750  0.065-   5 2.53  13 2.53   1 2.54   9 2.54   3 2.56   3 2.56  15 2.56  15 2.56

  12  0.250  0.748  0.297-  10 2.52   2 2.52   9 2.54  13 2.55  16 2.55   4 2.55   4 2.56   1 2.56
                             5 2.56  16 2.56   6 2.57  14 2.61
  13  0.500  0.501  0.180-  15 2.53  11 2.53   7 2.53   3 2.53  16 2.54  12 2.55   5 2.55   9 2.56
                             9 2.56   5 2.56   8 2.59   4 2.59
  14  0.502  0.498  0.419-  17 2.01   6 2.46  10 2.54   8 2.55   4 2.56  10 2.58  16 2.60  12 2.61
                             6 2.65
  15  0.750  0.750  0.065-   5 2.53  13 2.53   1 2.54   9 2.54   7 2.56   7 2.56  11 2.56  11 2.56

  16  0.749  0.748  0.297-  10 2.51   2 2.52   9 2.54  13 2.54   8 2.55  12 2.55   5 2.56   1 2.56
                            12 2.56   8 2.57   6 2.58  14 2.60
  17  0.498  0.714  0.528-  19 1.15  18 1.22  14 2.01   6 2.15
  18  0.543  0.881  0.583-  17 1.22
  19  0.436  0.511  0.552-  17 1.15

  LATTYP: Found a simple tetragonal cell.
 ALAT       =     5.1119999886
 C/A-ratio  =     3.0168427429

  Lattice vectors:

 A1 = (   5.1119999886,   0.0000000000,   0.0000000000)
 A2 = (  -0.0000088492,   5.1119999885,   0.0000000000)
 A3 = (  -0.0000266965,  -0.0000266965,  15.4221000671)

Analysis of symmetry for initial positions (statically):
 Subroutine PRICEL returns:
 Original cell was already a primitive cell.

 Routine SETGRP: Setting up the symmetry group for a
 simple tetragonal supercell.

 Subroutine GETGRP returns: Found  1 space group operations
 (whereof  1 operations were pure point group operations)
 out of a pool of 16 trial point group operations.

The static configuration has the point symmetry C_1 .

Analysis of symmetry for dynamics (positions and initial velocities):
 Subroutine PRICEL returns:
 Original cell was already a primitive cell.

[...]

The dynamic configuration has the point symmetry C_1 .

Analysis of constrained symmetry for selective dynamics:
 Subroutine PRICEL returns:
 Original cell was already a primitive cell.

[...]

The constrained configuration has the point symmetry C_1 .

 Subroutine INISYM returns: Found  1 space group operations
 (whereof  1 operations are pure point group operations),
 and found     1 'primitive' translations

 KPOINTS: auto

Automatic generation of k-mesh.
Space group operators:
 irot       det(A)        alpha          n_x          n_y          n_z        tau_x        tau_y        tau_z
    1     1.000000     0.000000     1.000000     0.000000     0.000000     0.000000     0.000000     0.000000

 Subroutine IBZKPT returns following result:

 Found     13 irreducible k-points:

 Following reciprocal coordinates:
            Coordinates               Weight
  0.000000  0.000000  0.000000      1.000000
  0.200000 -0.000000 -0.000000      2.000000
  0.400000 -0.000000 -0.000000      2.000000
  0.000000  0.200000  0.000000      2.000000
  0.200000  0.200000  0.000000      2.000000
  0.400000  0.200000  0.000000      2.000000
 -0.400000  0.200000  0.000000      2.000000
 -0.200000  0.200000  0.000000      2.000000
  0.000000  0.400000  0.000000      2.000000
  0.200000  0.400000 -0.000000      2.000000
  0.400000  0.400000  0.000000      2.000000
 -0.400000  0.400000  0.000000      2.000000
 -0.200000  0.400000 -0.000000      2.000000

 Following cartesian coordinates:
            Coordinates               Weight
  0.000000  0.000000  0.000000      1.000000
  0.039124  0.000000  0.000000      2.000000
  0.078247  0.000000  0.000000      2.000000
  0.000000  0.039124  0.000000      2.000000
  0.039124  0.039124  0.000000      2.000000
  0.078247  0.039124  0.000000      2.000000
 -0.078247  0.039123 -0.000000      2.000000
 -0.039124  0.039124 -0.000000      2.000000
  0.000000  0.078247  0.000000      2.000000
  0.039124  0.078247  0.000000      2.000000
  0.078247  0.078247  0.000000      2.000000
 -0.078247  0.078247 -0.000000      2.000000
 -0.039124  0.078247  0.000000      2.000000

 Subroutine IBZKPT_HF returns following result:

 Found     25 k-points in 1st BZ
 the following     25 k-points will be used (e.g. in the exchange kernel)
 Following reciprocal coordinates:   # in IRBZ
  0.000000  0.000000  0.000000    0.04000000   1 t-inv F
  0.200000 -0.000000 -0.000000    0.04000000   2 t-inv F
  0.400000 -0.000000 -0.000000    0.04000000   3 t-inv F
  0.000000  0.200000  0.000000    0.04000000   4 t-inv F
  0.200000  0.200000  0.000000    0.04000000   5 t-inv F
  0.400000  0.200000  0.000000    0.04000000   6 t-inv F
 -0.400000  0.200000  0.000000    0.04000000   7 t-inv F
 -0.200000  0.200000  0.000000    0.04000000   8 t-inv F
  0.000000  0.400000  0.000000    0.04000000   9 t-inv F
  0.200000  0.400000 -0.000000    0.04000000  10 t-inv F
  0.400000  0.400000  0.000000    0.04000000  11 t-inv F
 -0.400000  0.400000  0.000000    0.04000000  12 t-inv F
 -0.200000  0.400000 -0.000000    0.04000000  13 t-inv F
 -0.200000  0.000000  0.000000    0.04000000   2 t-inv T
 -0.400000  0.000000  0.000000    0.04000000   3 t-inv T
  0.000000 -0.200000  0.000000    0.04000000   4 t-inv T
 -0.200000 -0.200000 -0.000000    0.04000000   5 t-inv T
 -0.400000 -0.200000  0.000000    0.04000000   6 t-inv T
  0.400000 -0.200000  0.000000    0.04000000   7 t-inv T
  0.200000 -0.200000 -0.000000    0.04000000   8 t-inv T
  0.000000 -0.400000  0.000000    0.04000000   9 t-inv T
 -0.200000 -0.400000  0.000000    0.04000000  10 t-inv T
 -0.400000 -0.400000 -0.000000    0.04000000  11 t-inv T
  0.400000 -0.400000 -0.000000    0.04000000  12 t-inv T
  0.200000 -0.400000  0.000000    0.04000000  13 t-inv T

 I would recommend the setting:
   dimension x,y,z NGX =    25 NGY =   25 NGZ =   75
 SYSTEM =  name
 POSCAR =  Cu   C    O    H

 Startparameter for this run:
   NWRITE =      2    write-flag & timer
   PREC   = medium    normal or accurate (medium, high low for compatibility)
   ISTART =      0    job   : 0-new  1-cont  2-samecut
   ICHARG =      2    charge: 1-file 2-atom 10-const
   ISPIN  =      1    spin polarized calculation?
   LNONCOLLINEAR =      F non collinear calculations
   LSORBIT =      F    spin-orbit coupling
[...]
  Local  -71777.75432-72260.16959 76689.19497   -63.84570  -176.61616   -47.04312
  n-local  -617.21222  -621.31424  -623.53325    -1.12348    -0.81592     0.00550
  augment   907.81293   906.96468   908.90100     0.15176    -1.04278    -0.18273
  Kinetic  1461.97969  1449.33952  1462.44552    -2.07349   -13.52642    -3.77800
  Fock        0.00000     0.00000     0.00000     0.00000     0.00000     0.00000
  Total      -3.61773    -5.44098    -1.27690     0.29661     0.30710     0.09392
  in kB     -14.38208   -21.63030    -5.07623     1.17915     1.22088     0.37339

 VOLUME and BASIS-vectors are now :
  energy-cutoff  :      400.00
  volume of cell :      403.02
      direct lattice vectors                 reciprocal lattice vectors
     5.111999989  0.000000000  0.000000000     0.195618154  0.000000339  0.000000339
    -0.000008849  5.111999989  0.000000000     0.000000000  0.195618154  0.000000339
    -0.000026697 -0.000026697 15.422100067     0.000000000  0.000000000  0.064842012

  length of vectors
     5.111999989  5.111999989 15.422100067     0.195618154  0.195618154  0.064842012

 FORCES acting on ions
    electron-ion (+dipol)            ewald-force                    non-local-force                 convergence-correction
   -.581E+00 -.112E+02 0.986E+03   0.658E+00 0.115E+02 -.985E+03   -.653E-01 -.171E+00 -.695E+00   0.633E-03 -.508E-02 -.427E-01
   -.142E+01 -.261E+02 -.234E+04   0.163E+01 0.265E+02 0.234E+04   -.204E+00 -.390E+00 0.324E+01   0.779E-03 -.129E-01 0.618E-02
   0.256E+01 -.293E+01 0.262E+04   -.265E+01 0.290E+01 -.262E+04   0.108E+00 0.578E-01 -.217E+01   0.615E-02 0.677E-02 -.748E-02
   0.529E+01 -.833E+00 -.720E+03   -.519E+01 0.875E+00 0.720E+03   -.104E+00 -.456E-01 -.133E+00   0.299E-02 0.659E-02 -.308E-02
   0.115E+01 -.859E+01 0.997E+03   -.121E+01 0.861E+01 -.996E+03   0.336E-01 -.267E-01 -.713E+00   -.873E-03 -.408E-02 -.434E-01
   0.468E+01 -.111E+03 -.228E+04   -.523E+01 0.111E+03 0.227E+04   0.556E+00 -.590E+00 0.437E+01   0.658E-03 -.397E-01 0.212E-01
   -.259E+01 -.279E+01 0.262E+04   0.268E+01 0.292E+01 -.262E+04   -.100E+00 -.983E-01 -.231E+01   -.618E-02 0.180E-02 -.793E-02
   -.608E+01 -.527E+00 -.717E+03   0.605E+01 0.438E+00 0.717E+03   0.430E-01 0.878E-01 -.171E+00   -.325E-02 0.269E-02 0.600E-03
   -.250E-01 0.141E+02 0.976E+03   0.893E-02 -.144E+02 -.975E+03   -.367E-02 0.148E+00 -.936E+00   0.165E-02 0.508E-02 -.404E-01
   -.927E+01 0.250E+02 -.234E+04   0.909E+01 -.255E+02 0.234E+04   0.188E+00 0.500E+00 0.291E+01   -.477E-02 0.707E-02 -.888E-02
   0.377E+01 0.240E+01 0.262E+04   -.347E+01 -.235E+01 -.262E+04   -.278E+00 -.604E-01 -.262E+01   -.692E-03 -.678E-02 -.737E-02
   -.350E+01 0.760E+00 -.667E+03   0.334E+01 -.726E+00 0.667E+03   0.156E+00 -.324E-01 0.655E+00   0.668E-03 -.261E-02 0.359E-02
   0.550E+00 0.112E+02 0.993E+03   -.539E+00 -.113E+02 -.992E+03   -.121E-02 0.168E-01 -.704E+00   -.192E-02 0.441E-02 -.460E-01
   0.692E+01 0.111E+03 -.228E+04   -.555E+01 -.112E+03 0.227E+04   -.135E+01 0.130E+01 0.672E+01   0.490E-03 0.376E-02 -.204E-01
   -.380E+01 0.224E+01 0.262E+04   0.350E+01 -.237E+01 -.262E+04   0.279E+00 0.105E+00 -.262E+01   0.759E-03 -.183E-02 -.821E-02
   0.325E+01 -.225E+00 -.663E+03   -.307E+01 0.306E+00 0.662E+03   -.170E+00 -.818E-01 0.938E+00   -.958E-03 0.612E-03 -.108E-02
   0.294E+02 0.104E+03 -.868E+03   -.302E+02 -.108E+03 0.860E+03   0.884E+00 0.436E+01 0.772E+01   -.346E-02 0.151E-02 -.386E-01
   -.397E+02 -.126E+03 -.130E+04   0.500E+02 0.163E+03 0.134E+04   -.103E+02 -.371E+02 -.384E+02   0.131E-01 0.491E-01 -.244E-01
   0.183E+02 0.468E+02 -.242E+03   -.198E+02 -.517E+02 0.244E+03   0.142E+01 0.456E+01 -.160E+01   -.405E-03 -.102E-02 -.543E-02
   0.892E+01 0.274E+02 0.268E+02   0.249E-13 -.114E-12 -.938E-12   -.892E+01 -.275E+02 -.265E+02   0.537E-02 0.155E-01 -.274E+00

 POSITION                                       TOTAL-FORCE (eV/Angst)
      0.00015      0.00679      2.77274         0.011005      0.078550      0.065508
      0.00099      0.00093      6.32352         0.000258     -0.005574      0.000042
      1.27800      1.27800      0.99997         0.018823      0.033458      0.029150
      1.30726      1.26641      4.63684         0.000147      0.005293      0.004057
      2.55605      0.00214      2.76534        -0.030930     -0.005828     -0.023699
      2.54641      5.00900      6.47031         0.002774      0.002758      0.003829
      3.83400      1.27800      0.99997        -0.018200      0.037614      0.024647
      3.79304      1.25795      4.63562         0.005262      0.003633     -0.002980
      0.00009      2.55589      2.79001        -0.018689     -0.142928     -0.069106
      5.09923      2.55499      6.32370        -0.000609     -0.000067     -0.003766
      1.27799      3.83400      0.99997         0.019365     -0.018051      0.025371
      1.28020      3.82566      4.57736         0.001883      0.000904      0.004480
      2.55609      2.56008      2.77320         0.007435     -0.046286     -0.070527
      2.56596      2.54750      6.45723         0.017023      0.013116     -0.057800
      3.83399      3.83400      0.99997        -0.020961     -0.021851      0.025016
      3.82829      3.82527      4.57332         0.000884      0.001265      0.002338
      2.54619      3.65211      8.14199         0.126751      0.450474     -0.334213
      2.77498      4.50588      8.98435        -0.031843     -0.136312      0.074455
      2.22629      2.61110      8.46249        -0.090378     -0.250169      0.303197
    total drift:                                0.011550     -0.039522     -0.014057

  FREE ENERGIE OF THE ION-ELECTRON SYSTEM (eV)
  free  energy   TOTEN  =       -73.32724688 eV

  energy  without entropy=      -73.32398471  energy(sigma->0) =      -73.32615949

 d Force = 0.1231612E-02[-0.303E-01, 0.328E-01]  d Energy = 0.8764346E-03 0.355E-03
 d Force =-0.2413882E+02[-0.244E+02,-0.239E+02]  d Ewald  =-0.2414240E+02 0.357E-02

 stress matrix after NEB project (eV)
     -3.61773      0.29661      0.09392
      0.29661     -5.44098      0.30710
      0.09392      0.30710     -1.27690
  FORCES: max atom, RMS     0.575057    0.165197
  FORCE total and by dimension    0.720077    0.450474
  Stress total and by dimension    6.686174    5.440980
 Finite differences progress:
  Degree of freedom:   9/  9
  Displacement:        2/  2
  Total:              18/ 18

 SECOND DERIVATIVES (NOT SYMMETRIZED)
              17X         17Y         17Z         18X         18Y         18Z         19X         19Y         19Z
 17X    -9.113110  -11.715361   -5.825906    4.504996    7.964705    7.986577    2.933805    3.165513   -2.460748
 17Y   -11.939026  -45.215902  -23.938831    8.377052   31.511989   32.174929    4.101877   12.655729   -8.820820
 17Z    -5.923914  -24.209553  -41.679371    7.429173   27.614822   33.246499   -1.699872   -4.932498    6.560433
 18X     4.675908    8.266201    7.340705   -3.716658   -9.529172   -8.602255   -0.442184    1.589699    0.924946
 18Y     8.127926   31.764383   27.739471   -9.759518  -36.468946  -32.889660    1.393319    4.693861    3.316471
 18Z     8.147794   32.404181   33.340703   -8.807102  -32.751889  -35.346609    0.471995    1.226894   -1.150857
 19X     2.952379    3.993944   -1.746148   -0.439871    1.464623    0.509893   -2.261627   -5.141282    1.698703
 19Y     3.259490   12.561347   -5.181526    1.663723    4.882479    1.388129   -5.268332  -17.225937    5.313230
 19Z    -2.457910   -8.660342    6.637804    0.922131    3.247505   -1.172837    1.692842    5.137018   -6.310256

 Eigenvectors and eigenvalues of the dynamical matrix

   1 f  =   73.771277 THz   463.518602 2PiTHz 2460.744843 cm-1   305.093586 meV
             X         Y         Z           dx          dy          dz
      0.000149  0.006794  2.772739            0           0           0
      0.000989  0.000931  6.323516            0           0           0
      1.277996  1.277998  0.999969            0           0           0
      1.307257  1.266407  4.636842            0           0           0
      2.556046  0.002142  2.765337            0           0           0
      2.546414  5.008995  6.470307            0           0           0
      3.833996  1.277998  0.999969            0           0           0
      3.793042  1.257950  4.635615            0           0           0
      0.000093  2.555893  2.790012            0           0           0
      5.099231  2.554988  6.323704            0           0           0
      1.277992  3.833998  0.999969            0           0           0
      1.280205  3.825659  4.577362            0           0           0
      2.556093  2.560085  2.773202            0           0           0
      2.565958  2.547504  6.457231            0           0           0
      3.833992  3.833998  0.999969            0           0           0
      3.828290  3.825272  4.573322            0           0           0
      2.546191  3.652113  8.141990    -0.066874   -0.224669    0.087679
      2.774983  4.505877  8.984346    -0.006500   -0.023495   -0.005859
      2.226287  2.611100  8.512488     0.271902    0.857369   -0.357384

[...]

   7 f  =    2.403079 THz    15.098991 2PiTHz   80.158085 cm-1     9.938339 meV
             X         Y         Z           dx          dy          dz
      0.000149  0.006794  2.772739            0           0           0
      0.000989  0.000931  6.323516            0           0           0
      1.277996  1.277998  0.999969            0           0           0
      1.307257  1.266407  4.636842            0           0           0
      2.556046  0.002142  2.765337            0           0           0
      2.546414  5.008995  6.470307            0           0           0
      3.833996  1.277998  0.999969            0           0           0
      3.793042  1.257950  4.635615            0           0           0
      0.000093  2.555893  2.790012            0           0           0
      5.099231  2.554988  6.323704            0           0           0
      1.277992  3.833998  0.999969            0           0           0
      1.280205  3.825659  4.577362            0           0           0
      2.556093  2.560085  2.773202            0           0           0
      2.565958  2.547504  6.457231            0           0           0
      3.833992  3.833998  0.999969            0           0           0
      3.828290  3.825272  4.573322            0           0           0
      2.546191  3.652113  8.141990    -0.342986   -0.404292    0.073459
      2.774983  4.505877  8.984346    -0.188765   -0.726259    0.263662
      2.226287  2.611100  8.512488    -0.266663   -0.091214   -0.038488

   8 f/i=    0.966136 THz     6.070412 2PiTHz   32.226831 cm-1     3.995619 meV
             X         Y         Z           dx          dy          dz
      0.000149  0.006794  2.772739            0           0           0
      0.000989  0.000931  6.323516            0           0           0
      1.277996  1.277998  0.999969            0           0           0
      1.307257  1.266407  4.636842            0           0           0
      2.556046  0.002142  2.765337            0           0           0
      2.546414  5.008995  6.470307            0           0           0
      3.833996  1.277998  0.999969            0           0           0
      3.793042  1.257950  4.635615            0           0           0
      0.000093  2.555893  2.790012            0           0           0
      5.099231  2.554988  6.323704            0           0           0
      1.277992  3.833998  0.999969            0           0           0
      1.280205  3.825659  4.577362            0           0           0
      2.556093  2.560085  2.773202            0           0           0
      2.565958  2.547504  6.457231            0           0           0
      3.833992  3.833998  0.999969            0           0           0
      3.828290  3.825272  4.573322            0           0           0
      2.546191  3.652113  8.141990    -0.028615    0.134725   -0.018695
      2.774983  4.505877  8.984346     0.910560   -0.176616    0.058730
      2.226287  2.611100  8.512488    -0.316690    0.125446   -0.029834

   9 f/i=    6.124551 THz    38.481687 2PiTHz  204.293017 cm-1    25.329115 meV
             X         Y         Z           dx          dy          dz
      0.000149  0.006794  2.772739            0           0           0
      0.000989  0.000931  6.323516            0           0           0
      1.277996  1.277998  0.999969            0           0           0
      1.307257  1.266407  4.636842            0           0           0
      2.556046  0.002142  2.765337            0           0           0
      2.546414  5.008995  6.470307            0           0           0
      3.833996  1.277998  0.999969            0           0           0
      3.793042  1.257950  4.635615            0           0           0
      0.000093  2.555893  2.790012            0           0           0
      5.099231  2.554988  6.323704            0           0           0
      1.277992  3.833998  0.999969            0           0           0
      1.280205  3.825659  4.577362            0           0           0
      2.556093  2.560085  2.773202            0           0           0
      2.565958  2.547504  6.457231            0           0           0
      3.833992  3.833998  0.999969            0           0           0
      3.828290  3.825272  4.573322            0           0           0
      2.546191  3.652113  8.141990     0.124423    0.590688   -0.323763
      2.774983  4.505877  8.984346    -0.126251   -0.222337    0.557679
      2.226287  2.611100  8.512488     0.155447   -0.005352   -0.360850

 Finite differences POTIM=  5.000000000000000E-002
  LATTYP: Found a simple tetragonal cell.
 ALAT       =     5.1119999886
 C/A-ratio  =     3.0168427429

  Lattice vectors:

 A1 = (   5.1119999886,   0.0000000000,   0.0000000000)
 A2 = (  -0.0000088492,   5.1119999885,   0.0000000000)
 A3 = (  -0.0000266965,  -0.0000266965,  15.4221000671)

Analysis of symmetry for initial positions (statically):
 Subroutine PRICEL returns:
 Original cell was already a primitive cell.

[...]

The static configuration has the point symmetry C_1 .

Analysis of symmetry for dynamics (positions and initial velocities):
 Subroutine PRICEL returns:
 Original cell was already a primitive cell.

[...]

The dynamic configuration has the point symmetry C_1 .

Analysis of constrained symmetry for selective dynamics:
 Subroutine PRICEL returns:
 Original cell was already a primitive cell.

 Routine SETGRP: Setting up the symmetry group for a
 simple tetragonal supercell.

 Subroutine GETGRP returns: Found  1 space group operations
 (whereof  1 operations were pure point group operations)
 out of a pool of 16 trial point group operations.

The constrained configuration has the point symmetry C_1 .

 Subroutine INISYM returns: Found  1 space group operations
 (whereof  1 operations are pure point group operations),
 and found     1 'primitive' translations

 KPOINTS: auto

Automatic generation of k-mesh.
Space group operators:
 irot       det(A)        alpha          n_x          n_y          n_z        tau_x        tau_y        tau_z
    1     1.000000     0.000000     1.000000     0.000000     0.000000     0.000000     0.000000     0.000000

 Subroutine IBZKPT returns following result:

 Found     13 irreducible k-points:

 Following reciprocal coordinates:
            Coordinates               Weight
  0.000000  0.000000  0.000000      1.000000
  0.200000 -0.000000 -0.000000      2.000000
  0.400000 -0.000000 -0.000000      2.000000
  0.000000  0.200000  0.000000      2.000000
  0.200000  0.200000  0.000000      2.000000
  0.400000  0.200000  0.000000      2.000000
 -0.400000  0.200000  0.000000      2.000000
 -0.200000  0.200000  0.000000      2.000000
  0.000000  0.400000  0.000000      2.000000
  0.200000  0.400000 -0.000000      2.000000
  0.400000  0.400000  0.000000      2.000000
 -0.400000  0.400000  0.000000      2.000000
 -0.200000  0.400000 -0.000000      2.000000

 Following cartesian coordinates:
            Coordinates               Weight
  0.000000  0.000000  0.000000      1.000000
  0.039124  0.000000  0.000000      2.000000
  0.078247  0.000000  0.000000      2.000000
  0.000000  0.039124  0.000000      2.000000
  0.039124  0.039124  0.000000      2.000000
  0.078247  0.039124  0.000000      2.000000
 -0.078247  0.039123 -0.000000      2.000000
 -0.039124  0.039124 -0.000000      2.000000
  0.000000  0.078247  0.000000      2.000000
  0.039124  0.078247  0.000000      2.000000
  0.078247  0.078247  0.000000      2.000000
 -0.078247  0.078247 -0.000000      2.000000
 -0.039124  0.078247  0.000000      2.000000